Random 0 DD_pt 
35 20 35 30 31 18 21 35 21 35 8 36 26 18 34 12 22 33 18 30 32 30 35 37 29 8 21 24 37 20 36 35 37 13 31 8 38 8 24 24 37 33 35 8 21 27 39 15 35 32

Random 0 DD 
35 20 36 30 31 18 21 35 21 35 8 36 26 18 34 12 22 33 18 30 32 30 36 37 29 8 21 24 37 20 36 35 37 13 31 8 35 8 24 24 37 33 35 8 21 27 39 36 35 32

EDD 0 DD_pt 
35 39 36 30 33 29 21 36 21 39 34 39 31 18 34 27 38 33 34 30 32 32 38 37 34 8 21 39 39 20 36 36 37 34 31 8 39 8 24 24 38 33 39 8 21 27 39 39 35 32

EDD 0 DD 
35 39 36 30 33 29 21 36 21 39 34 39 31 18 34 27 38 33 34 30 32 38 38 37 34 8 21 39 39 20 36 39 37 34 31 8 39 8 24 24 38 33 39 8 21 27 39 39 35 32

Q 1000 DD_pt 
8 18 36 30 31 18 21 25 21 35 8 38 26 18 34 11 22 19 18 30 32 30 36 37 29 8 21 24 37 20 36 25 37 13 31 8 35 8 17 24 37 33 35 8 8 13 19 36 35 32

Q 10000 DD_pt 
35 18 36 30 31 18 8 35 8 35 8 38 26 8 8 12 22 33 8 30 32 30 36 37 29 8 21 24 37 20 36 27 37 13 24 8 35 8 22 24 37 33 35 8 8 8 19 36 35 32

Q 100000 DD_pt 
35 20 36 30 31 18 8 25 8 35 8 36 26 8 8 12 15 33 8 30 32 30 36 37 29 8 21 24 37 20 36 35 37 13 24 8 38 8 21 24 37 33 33 8 8 24 19 36 35 32

Q 1000 DD 
35 20 36 30 31 18 21 35 21 35 8 38 26 8 34 12 15 33 18 30 32 30 36 37 29 8 21 24 37 20 36 35 37 13 24 8 35 8 22 24 37 33 35 8 21 27 39 36 35 32

Q 10000 DD 
35 20 36 30 31 18 21 35 21 35 8 38 26 8 34 12 22 33 18 30 32 30 36 37 29 8 21 24 37 20 36 27 37 13 24 8 35 8 24 24 37 33 35 8 21 27 39 36 35 32

Q 100000 DD 
35 20 36 30 31 18 21 35 21 35 8 38 26 8 34 12 22 33 18 30 32 30 36 37 29 8 21 24 37 20 36 35 37 13 31 8 38 8 24 24 37 33 35 8 21 27 19 36 35 32

Q 1000 random 
35 20 36 30 31 18 21 35 21 35 8 38 26 18 34 12 22 33 18 30 32 30 36 37 29 8 21 24 37 20 36 35 37 13 31 8 38 8 24 24 37 33 35 8 21 27 39 36 35 32

Q 10000 random 
35 20 36 30 17 18 21 35 21 35 8 38 26 18 34 12 22 33 18 30 32 30 36 37 29 8 21 24 37 20 35 35 37 13 31 8 38 8 22 24 37 33 33 8 21 24 39 36 35 9

Q 100000 random 
35 20 36 30 31 18 21 35 21 35 8 38 26 18 34 12 22 33 18 30 32 30 36 37 29 8 21 24 37 20 36 27 37 13 31 8 38 8 24 24 37 33 35 8 21 27 39 36 35 32

sarsa 1000 DD_pt 
35 20 36 30 31 18 8 35 8 35 8 38 26 8 8 12 22 33 8 30 32 30 35 37 29 8 21 24 37 20 36 27 37 13 31 8 35 8 22 24 37 33 35 8 8 27 19 36 35 32

sarsa 10000 DD_pt 
35 18 36 30 31 18 8 25 8 35 8 36 26 8 8 12 15 33 8 30 32 30 36 37 29 8 21 24 37 20 36 35 37 8 24 8 35 8 22 24 37 33 35 8 8 24 19 36 35 32

sarsa 100000 DD_pt 
35 20 36 30 31 8 8 25 8 35 8 36 26 8 8 12 15 33 8 30 32 30 36 37 29 8 21 24 37 20 36 27 37 8 24 8 38 8 22 24 37 33 35 8 21 24 19 36 31 32

sarsa 1000 DD 
35 18 36 30 31 18 21 35 21 35 8 38 26 8 34 12 22 33 18 30 32 30 36 37 29 8 21 24 37 20 36 27 37 8 31 8 38 8 24 24 37 33 35 8 21 27 39 36 35 32

sarsa 10000 DD 
35 20 36 30 31 18 21 35 21 35 8 36 26 18 34 12 22 33 18 30 32 30 35 37 29 8 21 24 37 20 36 35 37 13 31 8 38 8 24 24 37 33 35 8 21 24 19 36 35 32

sarsa 100000 DD 
35 18 36 30 31 18 21 35 21 35 8 38 26 8 34 12 22 33 18 30 32 30 35 37 29 8 21 24 37 20 36 35 37 13 31 8 38 8 22 24 37 33 35 8 21 27 39 36 35 32

sarsa 1000 random 
35 20 36 30 31 18 21 35 21 35 8 38 26 18 34 12 22 33 18 30 32 30 35 37 29 8 21 24 37 20 36 35 37 13 31 8 38 8 24 24 37 33 35 8 21 27 39 36 35 32

sarsa 10000 random 
35 20 36 30 31 18 21 35 21 35 8 38 26 18 34 12 22 33 18 30 32 30 36 37 29 8 21 24 37 20 36 35 37 13 31 8 38 8 24 24 37 33 35 8 21 27 39 36 35 32

sarsa 100000 random 
35 20 36 30 31 18 21 35 21 35 8 38 26 18 34 12 22 33 18 30 32 30 35 37 29 8 21 24 37 20 36 35 37 13 31 8 38 8 22 24 37 33 35 8 21 24 39 36 35 32Random 0 DD_pt 
0 0 0 0 0 0 0 0 0 0 0 0 0 0 0 0 0 0 0 0 0 0 0 0 0 0 0 0 0 0 0 0 0 0 0 0 0 0 0 0 0 0 0 0 0 0 0 0 0 0

Random 0 DD 
0 0 0 0 0 0 0 0 0 0 0 0 0 0 0 0 0 0 0 0 0 0 0 0 0 0 0 0 0 0 0 0 0 0 0 0 0 0 0 0 0 0 0 0 0 0 0 0 0 0

EDD 0 DD_pt 
0 1117 0 0 0 0 0 0 0 0 0 2091 0 0 0 0 0 0 0 0 0 4 45 0 0 0 0 0 0 0 0 26 0 0 0 0 0 0 0 0 0 0 599 0 0 0 0 0 0 0

EDD 0 DD 
0 1322 0 0 2 0 0 0 0 0 0 2422 0 0 0 0 5 0 0 0 0 19 86 0 0 0 0 0 0 0 0 40 0 0 0 0 0 0 0 0 0 0 706 0 0 0 0 0 0 0

Q 1000 DD_pt 
0 0 0 0 0 0 0 0 0 0 0 0 0 0 0 0 0 0 0 0 0 0 0 0 0 0 0 0 0 0 0 0 0 0 0 0 0 0 0 0 0 0 0 0 0 0 0 0 0 0

Q 10000 DD_pt 
0 0 0 0 0 0 0 0 0 0 0 0 0 0 0 0 0 0 0 0 0 0 0 0 0 0 0 0 0 0 0 0 0 0 0 0 0 0 0 0 0 0 0 0 0 0 0 0 0 0

Q 100000 DD_pt 
0 0 0 0 0 0 0 0 0 0 0 0 0 0 0 0 0 0 0 0 0 0 0 0 0 0 0 0 0 0 0 0 0 0 0 0 0 0 0 0 0 0 0 0 0 0 0 0 0 0

Q 1000 DD 
0 0 0 0 0 0 0 0 0 0 0 0 0 0 0 0 0 0 0 0 0 0 0 0 0 0 0 0 0 0 0 0 0 0 0 0 0 0 0 0 0 0 0 0 0 0 0 0 0 0

Q 10000 DD 
0 0 0 0 0 0 0 0 0 0 0 0 0 0 0 0 0 0 0 0 0 0 0 0 0 0 0 0 0 0 0 0 0 0 0 0 0 0 0 0 0 0 0 0 0 0 0 0 0 0

Q 100000 DD 
0 0 0 0 0 0 0 0 0 0 0 0 0 0 0 0 0 0 0 0 0 0 0 0 0 0 0 0 0 0 0 0 0 0 0 0 0 0 0 0 0 0 0 0 0 0 0 0 0 0

Q 1000 random 
0 0 0 0 0 0 0 0 0 0 0 0 0 0 0 0 0 0 0 0 0 0 0 0 0 0 0 0 0 0 0 0 0 0 0 0 0 0 0 0 0 0 0 0 0 0 0 0 0 0

Q 10000 random 
0 0 0 0 0 0 0 0 0 0 0 0 0 0 0 0 0 0 0 0 0 0 0 0 0 0 0 0 0 0 0 0 0 0 0 0 0 0 0 0 0 0 0 0 0 0 0 0 0 0

Q 100000 random 
0 0 0 0 0 0 0 0 0 0 0 0 0 0 0 0 0 0 0 0 0 0 0 0 0 0 0 0 0 0 0 0 0 0 0 0 0 0 0 0 0 0 0 0 0 0 0 0 0 0

sarsa 1000 DD_pt 
0 0 0 0 0 0 0 0 0 0 0 0 0 0 0 0 0 0 0 0 0 0 0 0 0 0 0 0 0 0 0 0 0 0 0 0 0 0 0 0 0 0 0 0 0 0 0 0 0 0

sarsa 10000 DD_pt 
0 0 0 0 0 0 0 0 0 0 0 0 0 0 0 0 0 0 0 0 0 0 0 0 0 0 0 0 0 0 0 0 0 0 0 0 0 0 0 0 0 0 0 0 0 0 0 0 0 0

sarsa 100000 DD_pt 
0 0 0 0 0 0 0 0 0 0 0 0 0 0 0 0 0 0 0 0 0 0 0 0 0 0 0 0 0 0 0 0 0 0 0 0 0 0 0 0 0 0 0 0 0 0 0 0 0 0

sarsa 1000 DD 
0 0 0 0 0 0 0 0 0 0 0 0 0 0 0 0 0 0 0 0 0 0 0 0 0 0 0 0 0 0 0 0 0 0 0 0 0 0 0 0 0 0 0 0 0 0 0 0 0 0

sarsa 10000 DD 
0 0 0 0 0 0 0 0 0 0 0 0 0 0 0 0 0 0 0 0 0 0 0 0 0 0 0 0 0 0 0 0 0 0 0 0 0 0 0 0 0 0 0 0 0 0 0 0 0 0

sarsa 100000 DD 
0 0 0 0 0 0 0 0 0 0 0 0 0 0 0 0 0 0 0 0 0 0 0 0 0 0 0 0 0 0 0 0 0 0 0 0 0 0 0 0 0 0 0 0 0 0 0 0 0 0

sarsa 1000 random 
0 0 0 0 0 0 0 0 0 0 0 0 0 0 0 0 0 0 0 0 0 0 0 0 0 0 0 0 0 0 0 0 0 0 0 0 0 0 0 0 0 0 0 0 0 0 0 0 0 0

sarsa 10000 random 
0 0 0 0 0 0 0 0 0 0 0 0 0 0 0 0 0 0 0 0 0 0 0 0 0 0 0 0 0 0 0 0 0 0 0 0 0 0 0 0 0 0 0 0 0 0 0 0 0 0

sarsa 100000 random 
0 0 0 0 0 0 0 0 0 0 0 0 0 0 0 0 0 0 0 0 0 0 0 0 0 0 0 0 0 0 0 0 0 0 0 0 0 0 0 0 0 0 0 0 0 0 0 0 0 0

sarsa 10000 DD_pt 
35 18 36 30 31 18 8 25 8 35 8 36 26 8 8 12 15 33 8 30 32 30 36 37 29 8 21 24 37 20 36 35 37 8 24 8 35 8 22 24 37 33 35 8 8 24 19 36 35 32

sarsa 10000 DD_pt 
35 18 36 30 31 18 8 25 8 35 8 36 26 8 8 12 15 33 8 30 32 30 36 37 29 8 21 24 37 20 36 35 37 8 24 8 35 8 22 24 37 33 35 8 8 24 19 36 35 32

sarsa 10000 DD_pt 
35 18 36 30 31 18 8 25 8 35 8 36 26 8 8 12 15 33 8 30 32 30 36 37 29 8 21 24 37 20 36 35 37 8 24 8 35 8 22 24 37 33 35 8 8 24 19 36 35 32

sarsa 10000 DD_pt 
35 18 36 30 31 18 8 25 8 35 8 36 26 8 8 12 15 33 8 30 32 30 36 37 29 8 21 24 37 20 36 35 37 8 24 8 35 8 22 24 37 33 35 8 8 24 19 36 35 32

sarsa 50 DD 
30 37 8 19 30 31 30 31 38 8 25 35 38 39 37 30 29 30 8 36 35 20 35 27 35 38 39 37 28 17 27 34 38 38 26 29 19 29 11 26 36 37 35 13 38 22 37 22 39 30

sarsa 50 DD 
30 37 29 19 30 31 30 31 38 8 24 35 38 39 37 30 29 30 8 36 35 20 35 27 35 38 39 37 28 11 35 34 38 38 26 29 19 29 11 26 36 37 35 13 38 22 37 22 39 30 37 34 22 13 35 38 37 28 34 39 26 39 21 27 8 35 8 38 23 8 28 32 13 35 25 29 35 8 14 13 39 21 20 29 18 23 31 32 18 35 19 17 22 31 29 27 33 22 9 21

sarsa 50 DD 
37 35 8 19 30 31 30 31 38 34 30 35 38 39 37 30 29 30 8 36 35 31 35 27 35 38 39 37 28 17 27 23 38 24 26 29 19 29 11 26 36 37 35 13 38 22 37 22 39 30 37 34 22 13 35 38 37 28 34 39 26 39 21 39 21 35 31 38 23 8 28 32 13 35 25 29 35 8 14 13 39 21 25 29 18 23 31 32 32 35 8 17 22 31 29 27 33 22 9 21

sarsa 50 DD 
37 37 29 19 30 31 30 31 38 8 25 35 38 39 37 30 29 30 8 36 35 20 35 27 35 38 39 37 28 17 35 34 17 38 26 29 19 29 11 26 36 37 35 13 38 17 37 22 39 30 37 34 22 13 35 38 37 28 34 39 26 39 21 39 21 35 31 38 23 8 28 28 13 35 25 29 35 8 15 13 39 21 20 29 18 23 31 32 18 35 19 17 22 23 29 30 33 22 9 21 20 30 22 33 23 20 26 8 34 8 12 23 14 30 36 8 38 35 20 31 12 34 27 19 38 36 39 38 35 35 27 37 14 31 34 34 10 29 30 31 39 24 39 17 30 13 38 11 38 8 39 36 26 8 19 31 31 33 28 14 35 38 32 14 13 26 26 18 36 20 32 28 37 8 27 35 39 35 30 35 33 20 36 31 8 38 39 32 38 35 27 20 19 31 13 32 8 37 35 13

sarsa 50 DD 
35 38 36 39 39 18 21 25 8 35 8 31 26 8 8 12 22 38 37 30 32 30 25 37 29 8 21 24 37 31 36 36 37 13 31 8 35 8 24 24 37 33 36 8 8 27 39 36 35 32 33 38 32 38 8 29 37 25 27 36 26 8 36 10 34 36 29 38 39 26 28 36 31 37 39 16 28 36 8 35 19 33 39 22 35 24 34 37 35 37 8 31 37 20 35 37 39 38 27 24 29 39 26 19 37 30 35 23 23 29 33 27 39 34 25 38 32 14 36 32 32 22 33 25 33 35 30 39 21 33 33 13 21 37 32 37 35 26 30 39 33 30 34 38 13 34 38 32 24 22 36 21 38 34 19 26 39 12 8 37 36 26 32 37 37 36 38 36 31 21 38 8 37 39 39 38 33 39 37 36 11 30 36 12 36 36 39 31 38 26 38 38 38 37 16 21 16 36 18 28

